(declare-const a Int)
(assert (< a 0))
(declare-const b Int)
(assert (not (= b 0)))
(declare-const c Int)
(assert (= c 0))
(assert (<= 0 0))
(assert (= (- (+ (+ (* (* a (- b)) (- b)) (* b (- b))) 0)) (* (- 1 a) (* b b))))
(assert (<= (* (- 1 a) (* b b)) 0))
(assert (not (< 0 (- 1 a))))
(check-sat)
